112384 100 1100 194 98 88 108 124 72 71 114 154 187 187 139 180 159 171 134 167 112 103 158 82 74 137 83 162 109 174 156 134 116 131 193 129 90 169 132 116 75 196 72 129 134 166 87 121 137 162 80 174 122 152 193 148 132 73 166 169 115 132 91 105 161 196 156 148 98 122 101 76 93 113 70 138 74 107 94 135 73 86 195 161 117 85 143 199 174 108 190 95 143 164 131 90 71 79 185 140 93 154 95 490 135 179 284 321 113 101 155 266 461 479 407 452 371 351 357 423 322 210 362 124 116 306 137 389 196 432 373 328 178 369 476 290 156 358 182 246 111 495 102 246 213 373 198 327 264 376 141 410 298 276 468 330 204 108 367 373 285 267 170 228 376 494 361 306 203 279 213 106 145 262 100 337 112 192 175 205 117 110 485 322 222 196 309 498 413 276 473 230 214 417 305 188 105 129 437 359 167 330 186
